Li Ge P  S 
 1.0000000000000000
     8.5899505615000002    0.0000000000000000    0.0000000000000000
    -0.0386046614500000    8.8794565242499992    0.0000000000000000
    -0.1455176830500000   -0.4498719750500000   12.9663443112000003
 Li  Ge  P   S  
  20   2   4  24
Direct
  0.2159609940000000  0.8178780080000000  0.7535529740000002
  0.2214960000000000  0.2588349880000000  0.9194279900000000
  0.2296369960000000  0.7569919820000000  0.2519280020000000
  0.2296479940000000  0.2281340060000000  0.3660700020000000
  0.2411910000000000  0.2118050000000000  0.6496819860000000
  0.2441959980000000  0.7196549780000000  0.4849359980000000
  0.2450540060000000  0.7611290220000000  0.0057880000000000
  0.2598130100000000  0.2893129880000000  0.1575810020000000
  0.4620470100000000  0.5160800220000000  0.7507740260000000
  0.4963620000000000  0.9963219760000002  0.0506500000000000
  0.5105599760000000  0.9648410080000001  0.5489519840000000
  0.7342460159999999  0.2563750140000000  0.8572679760000000
  0.7414010160000000  0.2628560060000000  0.1314030000000000
  0.7437819840000000  0.7471070280000000  0.2819570000000000
  0.7481259700000000  0.7611089940000000  0.0084030000000000
  0.7540580040000000  0.2201050080000000  0.3515259920000000
  0.7641689780000001  0.7282580140000000  0.6894540200000000
  0.7834100120000000  0.2145880020000000  0.6254649760000000
  0.9644939900000001  0.5171219700000002  0.4263229960000001
  0.9887310260000000  0.5170909760000000  0.9517369860000002
  0.5088400239999999  0.9907500140000001  0.8156200060000000
  0.9968670020000000  0.4879730040000000  0.1831109980000000
  0.0083590000000000  0.4831759919999999  0.6844360240000001
  0.4878149920000000  0.0091810000000000  0.3105010100000001
  0.4923999900000000  0.5156300060000000  0.9930840140000002
  0.9926390060000000  0.9650139800000000  0.5018439880000000
  0.0007660000000000  0.7092329860000000  0.1038340040000000
  0.0030850000000000  0.2815040060000000  0.7604740260000001
  0.0046020000000000  0.7939310080000000  0.3896549940000000
  0.0068860000000000  0.2956849940000000  0.0654530000000000
  0.1957789960000000  0.9476460219999999  0.5883449920000000
  0.2011889960000000  0.4785850040000000  0.2915830020000000
  0.2123620060000000  0.4862999920000000  0.6010389920000000
  0.2848890120000000  0.9890739920000000  0.9054629800000000
  0.2922079860000000  0.0311870000000000  0.2192109980000000
  0.2956610020000000  0.5308579800000000  0.9012579920000000
  0.4848800000000000  0.8005220300000000  0.3751229940000001
  0.4869329920000001  0.3101589980000000  0.0593990020000000
  0.4924739900000000  0.7926539780000000  0.7030090100000000
  0.4955309920000000  0.6948429940000000  0.0971560040000000
  0.4957740000000000  0.1787589940000000  0.4224450000000001
  0.5174610020000000  0.2009879940000000  0.7214800120000000
  0.6842569700000000  0.5303239820000000  0.8996850260000002
  0.6858760120000000  0.0159360000000000  0.2214040020000000
  0.7137550120000000  0.9990029939999999  0.9215459820000002
  0.7792519919999999  0.4661790139999999  0.2732200020000000
  0.8016430140000000  0.9458259940000000  0.5899209980000000
  0.8150439860000001  0.4910100100000001  0.5895599720000000
  0.9886940120000000  0.1764360080000000  0.4438430080000000
  0.9930949800000000  0.6631360060000000  0.7876189940000002
